\* 10by10 *\
Minimize
OBJ: __dummy
Subject To
_C1: - Color_0_0 - Text_0_0 + _hiddenCongruency0_0_0 >= -1
_C10: - Congruency_0_0 + _hiddenCongruency0_0_0 + _hiddenCongruency0_1_0
 + _hiddenCongruency0_2_0 + _hiddenCongruency0_3_0 >= 0
_C100: Color_3_0 + Text_0_0 - 2 _hiddenCongruency1_9_0 >= 0
_C101: - Color_3_0 - Text_1_0 + _hiddenCongruency1_10_0 >= -1
_C102: Color_3_0 + Text_1_0 - 2 _hiddenCongruency1_10_0 >= 0
_C103: - Color_3_0 - Text_2_0 + _hiddenCongruency1_11_0 >= -1
_C104: Color_3_0 + Text_2_0 - 2 _hiddenCongruency1_11_0 >= 0
_C105: 12 Congruency_1_0 - _hiddenCongruency1_0_0 - _hiddenCongruency1_10_0
 - _hiddenCongruency1_11_0 - _hiddenCongruency1_1_0 - _hiddenCongruency1_2_0
 - _hiddenCongruency1_3_0 - _hiddenCongruency1_4_0 - _hiddenCongruency1_5_0
 - _hiddenCongruency1_6_0 - _hiddenCongruency1_7_0 - _hiddenCongruency1_8_0
 - _hiddenCongruency1_9_0 >= 0
_C106: - Congruency_1_0 + _hiddenCongruency1_0_0 + _hiddenCongruency1_10_0
 + _hiddenCongruency1_11_0 + _hiddenCongruency1_1_0 + _hiddenCongruency1_2_0
 + _hiddenCongruency1_3_0 + _hiddenCongruency1_4_0 + _hiddenCongruency1_5_0
 + _hiddenCongruency1_6_0 + _hiddenCongruency1_7_0 + _hiddenCongruency1_8_0
 + _hiddenCongruency1_9_0 >= 0
_C107: - Color_0_1 - Text_1_1 + _hiddenCongruency1_0_1 >= -1
_C108: Color_0_1 + Text_1_1 - 2 _hiddenCongruency1_0_1 >= 0
_C109: - Color_0_1 - Text_2_1 + _hiddenCongruency1_1_1 >= -1
_C11: - Color_0_1 - Text_0_1 + _hiddenCongruency0_0_1 >= -1
_C110: Color_0_1 + Text_2_1 - 2 _hiddenCongruency1_1_1 >= 0
_C111: - Color_0_1 - Text_3_1 + _hiddenCongruency1_2_1 >= -1
_C112: Color_0_1 + Text_3_1 - 2 _hiddenCongruency1_2_1 >= 0
_C113: - Color_1_1 - Text_0_1 + _hiddenCongruency1_3_1 >= -1
_C114: Color_1_1 + Text_0_1 - 2 _hiddenCongruency1_3_1 >= 0
_C115: - Color_1_1 - Text_2_1 + _hiddenCongruency1_4_1 >= -1
_C116: Color_1_1 + Text_2_1 - 2 _hiddenCongruency1_4_1 >= 0
_C117: - Color_1_1 - Text_3_1 + _hiddenCongruency1_5_1 >= -1
_C118: Color_1_1 + Text_3_1 - 2 _hiddenCongruency1_5_1 >= 0
_C119: - Color_2_1 - Text_0_1 + _hiddenCongruency1_6_1 >= -1
_C12: Color_0_1 + Text_0_1 - 2 _hiddenCongruency0_0_1 >= 0
_C120: Color_2_1 + Text_0_1 - 2 _hiddenCongruency1_6_1 >= 0
_C121: - Color_2_1 - Text_1_1 + _hiddenCongruency1_7_1 >= -1
_C122: Color_2_1 + Text_1_1 - 2 _hiddenCongruency1_7_1 >= 0
_C123: - Color_2_1 - Text_3_1 + _hiddenCongruency1_8_1 >= -1
_C124: Color_2_1 + Text_3_1 - 2 _hiddenCongruency1_8_1 >= 0
_C125: - Color_3_1 - Text_0_1 + _hiddenCongruency1_9_1 >= -1
_C126: Color_3_1 + Text_0_1 - 2 _hiddenCongruency1_9_1 >= 0
_C127: - Color_3_1 - Text_1_1 + _hiddenCongruency1_10_1 >= -1
_C128: Color_3_1 + Text_1_1 - 2 _hiddenCongruency1_10_1 >= 0
_C129: - Color_3_1 - Text_2_1 + _hiddenCongruency1_11_1 >= -1
_C13: - Color_1_1 - Text_1_1 + _hiddenCongruency0_1_1 >= -1
_C130: Color_3_1 + Text_2_1 - 2 _hiddenCongruency1_11_1 >= 0
_C131: 12 Congruency_1_1 - _hiddenCongruency1_0_1 - _hiddenCongruency1_10_1
 - _hiddenCongruency1_11_1 - _hiddenCongruency1_1_1 - _hiddenCongruency1_2_1
 - _hiddenCongruency1_3_1 - _hiddenCongruency1_4_1 - _hiddenCongruency1_5_1
 - _hiddenCongruency1_6_1 - _hiddenCongruency1_7_1 - _hiddenCongruency1_8_1
 - _hiddenCongruency1_9_1 >= 0
_C132: - Congruency_1_1 + _hiddenCongruency1_0_1 + _hiddenCongruency1_10_1
 + _hiddenCongruency1_11_1 + _hiddenCongruency1_1_1 + _hiddenCongruency1_2_1
 + _hiddenCongruency1_3_1 + _hiddenCongruency1_4_1 + _hiddenCongruency1_5_1
 + _hiddenCongruency1_6_1 + _hiddenCongruency1_7_1 + _hiddenCongruency1_8_1
 + _hiddenCongruency1_9_1 >= 0
_C133: - Color_0_2 - Text_1_2 + _hiddenCongruency1_0_2 >= -1
_C134: Color_0_2 + Text_1_2 - 2 _hiddenCongruency1_0_2 >= 0
_C135: - Color_0_2 - Text_2_2 + _hiddenCongruency1_1_2 >= -1
_C136: Color_0_2 + Text_2_2 - 2 _hiddenCongruency1_1_2 >= 0
_C137: - Color_0_2 - Text_3_2 + _hiddenCongruency1_2_2 >= -1
_C138: Color_0_2 + Text_3_2 - 2 _hiddenCongruency1_2_2 >= 0
_C139: - Color_1_2 - Text_0_2 + _hiddenCongruency1_3_2 >= -1
_C14: Color_1_1 + Text_1_1 - 2 _hiddenCongruency0_1_1 >= 0
_C140: Color_1_2 + Text_0_2 - 2 _hiddenCongruency1_3_2 >= 0
_C141: - Color_1_2 - Text_2_2 + _hiddenCongruency1_4_2 >= -1
_C142: Color_1_2 + Text_2_2 - 2 _hiddenCongruency1_4_2 >= 0
_C143: - Color_1_2 - Text_3_2 + _hiddenCongruency1_5_2 >= -1
_C144: Color_1_2 + Text_3_2 - 2 _hiddenCongruency1_5_2 >= 0
_C145: - Color_2_2 - Text_0_2 + _hiddenCongruency1_6_2 >= -1
_C146: Color_2_2 + Text_0_2 - 2 _hiddenCongruency1_6_2 >= 0
_C147: - Color_2_2 - Text_1_2 + _hiddenCongruency1_7_2 >= -1
_C148: Color_2_2 + Text_1_2 - 2 _hiddenCongruency1_7_2 >= 0
_C149: - Color_2_2 - Text_3_2 + _hiddenCongruency1_8_2 >= -1
_C15: - Color_2_1 - Text_2_1 + _hiddenCongruency0_2_1 >= -1
_C150: Color_2_2 + Text_3_2 - 2 _hiddenCongruency1_8_2 >= 0
_C151: - Color_3_2 - Text_0_2 + _hiddenCongruency1_9_2 >= -1
_C152: Color_3_2 + Text_0_2 - 2 _hiddenCongruency1_9_2 >= 0
_C153: - Color_3_2 - Text_1_2 + _hiddenCongruency1_10_2 >= -1
_C154: Color_3_2 + Text_1_2 - 2 _hiddenCongruency1_10_2 >= 0
_C155: - Color_3_2 - Text_2_2 + _hiddenCongruency1_11_2 >= -1
_C156: Color_3_2 + Text_2_2 - 2 _hiddenCongruency1_11_2 >= 0
_C157: 12 Congruency_1_2 - _hiddenCongruency1_0_2 - _hiddenCongruency1_10_2
 - _hiddenCongruency1_11_2 - _hiddenCongruency1_1_2 - _hiddenCongruency1_2_2
 - _hiddenCongruency1_3_2 - _hiddenCongruency1_4_2 - _hiddenCongruency1_5_2
 - _hiddenCongruency1_6_2 - _hiddenCongruency1_7_2 - _hiddenCongruency1_8_2
 - _hiddenCongruency1_9_2 >= 0
_C158: - Congruency_1_2 + _hiddenCongruency1_0_2 + _hiddenCongruency1_10_2
 + _hiddenCongruency1_11_2 + _hiddenCongruency1_1_2 + _hiddenCongruency1_2_2
 + _hiddenCongruency1_3_2 + _hiddenCongruency1_4_2 + _hiddenCongruency1_5_2
 + _hiddenCongruency1_6_2 + _hiddenCongruency1_7_2 + _hiddenCongruency1_8_2
 + _hiddenCongruency1_9_2 >= 0
_C159: - Color_0_3 - Text_1_3 + _hiddenCongruency1_0_3 >= -1
_C16: Color_2_1 + Text_2_1 - 2 _hiddenCongruency0_2_1 >= 0
_C160: Color_0_3 + Text_1_3 - 2 _hiddenCongruency1_0_3 >= 0
_C161: - Color_0_3 - Text_2_3 + _hiddenCongruency1_1_3 >= -1
_C162: Color_0_3 + Text_2_3 - 2 _hiddenCongruency1_1_3 >= 0
_C163: - Color_0_3 - Text_3_3 + _hiddenCongruency1_2_3 >= -1
_C164: Color_0_3 + Text_3_3 - 2 _hiddenCongruency1_2_3 >= 0
_C165: - Color_1_3 - Text_0_3 + _hiddenCongruency1_3_3 >= -1
_C166: Color_1_3 + Text_0_3 - 2 _hiddenCongruency1_3_3 >= 0
_C167: - Color_1_3 - Text_2_3 + _hiddenCongruency1_4_3 >= -1
_C168: Color_1_3 + Text_2_3 - 2 _hiddenCongruency1_4_3 >= 0
_C169: - Color_1_3 - Text_3_3 + _hiddenCongruency1_5_3 >= -1
_C17: - Color_3_1 - Text_3_1 + _hiddenCongruency0_3_1 >= -1
_C170: Color_1_3 + Text_3_3 - 2 _hiddenCongruency1_5_3 >= 0
_C171: - Color_2_3 - Text_0_3 + _hiddenCongruency1_6_3 >= -1
_C172: Color_2_3 + Text_0_3 - 2 _hiddenCongruency1_6_3 >= 0
_C173: - Color_2_3 - Text_1_3 + _hiddenCongruency1_7_3 >= -1
_C174: Color_2_3 + Text_1_3 - 2 _hiddenCongruency1_7_3 >= 0
_C175: - Color_2_3 - Text_3_3 + _hiddenCongruency1_8_3 >= -1
_C176: Color_2_3 + Text_3_3 - 2 _hiddenCongruency1_8_3 >= 0
_C177: - Color_3_3 - Text_0_3 + _hiddenCongruency1_9_3 >= -1
_C178: Color_3_3 + Text_0_3 - 2 _hiddenCongruency1_9_3 >= 0
_C179: - Color_3_3 - Text_1_3 + _hiddenCongruency1_10_3 >= -1
_C18: Color_3_1 + Text_3_1 - 2 _hiddenCongruency0_3_1 >= 0
_C180: Color_3_3 + Text_1_3 - 2 _hiddenCongruency1_10_3 >= 0
_C181: - Color_3_3 - Text_2_3 + _hiddenCongruency1_11_3 >= -1
_C182: Color_3_3 + Text_2_3 - 2 _hiddenCongruency1_11_3 >= 0
_C183: 12 Congruency_1_3 - _hiddenCongruency1_0_3 - _hiddenCongruency1_10_3
 - _hiddenCongruency1_11_3 - _hiddenCongruency1_1_3 - _hiddenCongruency1_2_3
 - _hiddenCongruency1_3_3 - _hiddenCongruency1_4_3 - _hiddenCongruency1_5_3
 - _hiddenCongruency1_6_3 - _hiddenCongruency1_7_3 - _hiddenCongruency1_8_3
 - _hiddenCongruency1_9_3 >= 0
_C184: - Congruency_1_3 + _hiddenCongruency1_0_3 + _hiddenCongruency1_10_3
 + _hiddenCongruency1_11_3 + _hiddenCongruency1_1_3 + _hiddenCongruency1_2_3
 + _hiddenCongruency1_3_3 + _hiddenCongruency1_4_3 + _hiddenCongruency1_5_3
 + _hiddenCongruency1_6_3 + _hiddenCongruency1_7_3 + _hiddenCongruency1_8_3
 + _hiddenCongruency1_9_3 >= 0
_C185: - Color_0_4 - Text_1_4 + _hiddenCongruency1_0_4 >= -1
_C186: Color_0_4 + Text_1_4 - 2 _hiddenCongruency1_0_4 >= 0
_C187: - Color_0_4 - Text_2_4 + _hiddenCongruency1_1_4 >= -1
_C188: Color_0_4 + Text_2_4 - 2 _hiddenCongruency1_1_4 >= 0
_C189: - Color_0_4 - Text_3_4 + _hiddenCongruency1_2_4 >= -1
_C19: 4 Congruency_0_1 - _hiddenCongruency0_0_1 - _hiddenCongruency0_1_1
 - _hiddenCongruency0_2_1 - _hiddenCongruency0_3_1 >= 0
_C190: Color_0_4 + Text_3_4 - 2 _hiddenCongruency1_2_4 >= 0
_C191: - Color_1_4 - Text_0_4 + _hiddenCongruency1_3_4 >= -1
_C192: Color_1_4 + Text_0_4 - 2 _hiddenCongruency1_3_4 >= 0
_C193: - Color_1_4 - Text_2_4 + _hiddenCongruency1_4_4 >= -1
_C194: Color_1_4 + Text_2_4 - 2 _hiddenCongruency1_4_4 >= 0
_C195: - Color_1_4 - Text_3_4 + _hiddenCongruency1_5_4 >= -1
_C196: Color_1_4 + Text_3_4 - 2 _hiddenCongruency1_5_4 >= 0
_C197: - Color_2_4 - Text_0_4 + _hiddenCongruency1_6_4 >= -1
_C198: Color_2_4 + Text_0_4 - 2 _hiddenCongruency1_6_4 >= 0
_C199: - Color_2_4 - Text_1_4 + _hiddenCongruency1_7_4 >= -1
_C2: Color_0_0 + Text_0_0 - 2 _hiddenCongruency0_0_0 >= 0
_C20: - Congruency_0_1 + _hiddenCongruency0_0_1 + _hiddenCongruency0_1_1
 + _hiddenCongruency0_2_1 + _hiddenCongruency0_3_1 >= 0
_C200: Color_2_4 + Text_1_4 - 2 _hiddenCongruency1_7_4 >= 0
_C201: - Color_2_4 - Text_3_4 + _hiddenCongruency1_8_4 >= -1
_C202: Color_2_4 + Text_3_4 - 2 _hiddenCongruency1_8_4 >= 0
_C203: - Color_3_4 - Text_0_4 + _hiddenCongruency1_9_4 >= -1
_C204: Color_3_4 + Text_0_4 - 2 _hiddenCongruency1_9_4 >= 0
_C205: - Color_3_4 - Text_1_4 + _hiddenCongruency1_10_4 >= -1
_C206: Color_3_4 + Text_1_4 - 2 _hiddenCongruency1_10_4 >= 0
_C207: - Color_3_4 - Text_2_4 + _hiddenCongruency1_11_4 >= -1
_C208: Color_3_4 + Text_2_4 - 2 _hiddenCongruency1_11_4 >= 0
_C209: 12 Congruency_1_4 - _hiddenCongruency1_0_4 - _hiddenCongruency1_10_4
 - _hiddenCongruency1_11_4 - _hiddenCongruency1_1_4 - _hiddenCongruency1_2_4
 - _hiddenCongruency1_3_4 - _hiddenCongruency1_4_4 - _hiddenCongruency1_5_4
 - _hiddenCongruency1_6_4 - _hiddenCongruency1_7_4 - _hiddenCongruency1_8_4
 - _hiddenCongruency1_9_4 >= 0
_C21: - Color_0_2 - Text_0_2 + _hiddenCongruency0_0_2 >= -1
_C210: - Congruency_1_4 + _hiddenCongruency1_0_4 + _hiddenCongruency1_10_4
 + _hiddenCongruency1_11_4 + _hiddenCongruency1_1_4 + _hiddenCongruency1_2_4
 + _hiddenCongruency1_3_4 + _hiddenCongruency1_4_4 + _hiddenCongruency1_5_4
 + _hiddenCongruency1_6_4 + _hiddenCongruency1_7_4 + _hiddenCongruency1_8_4
 + _hiddenCongruency1_9_4 >= 0
_C211: - Color_0_5 - Text_1_5 + _hiddenCongruency1_0_5 >= -1
_C212: Color_0_5 + Text_1_5 - 2 _hiddenCongruency1_0_5 >= 0
_C213: - Color_0_5 - Text_2_5 + _hiddenCongruency1_1_5 >= -1
_C214: Color_0_5 + Text_2_5 - 2 _hiddenCongruency1_1_5 >= 0
_C215: - Color_0_5 - Text_3_5 + _hiddenCongruency1_2_5 >= -1
_C216: Color_0_5 + Text_3_5 - 2 _hiddenCongruency1_2_5 >= 0
_C217: - Color_1_5 - Text_0_5 + _hiddenCongruency1_3_5 >= -1
_C218: Color_1_5 + Text_0_5 - 2 _hiddenCongruency1_3_5 >= 0
_C219: - Color_1_5 - Text_2_5 + _hiddenCongruency1_4_5 >= -1
_C22: Color_0_2 + Text_0_2 - 2 _hiddenCongruency0_0_2 >= 0
_C220: Color_1_5 + Text_2_5 - 2 _hiddenCongruency1_4_5 >= 0
_C221: - Color_1_5 - Text_3_5 + _hiddenCongruency1_5_5 >= -1
_C222: Color_1_5 + Text_3_5 - 2 _hiddenCongruency1_5_5 >= 0
_C223: - Color_2_5 - Text_0_5 + _hiddenCongruency1_6_5 >= -1
_C224: Color_2_5 + Text_0_5 - 2 _hiddenCongruency1_6_5 >= 0
_C225: - Color_2_5 - Text_1_5 + _hiddenCongruency1_7_5 >= -1
_C226: Color_2_5 + Text_1_5 - 2 _hiddenCongruency1_7_5 >= 0
_C227: - Color_2_5 - Text_3_5 + _hiddenCongruency1_8_5 >= -1
_C228: Color_2_5 + Text_3_5 - 2 _hiddenCongruency1_8_5 >= 0
_C229: - Color_3_5 - Text_0_5 + _hiddenCongruency1_9_5 >= -1
_C23: - Color_1_2 - Text_1_2 + _hiddenCongruency0_1_2 >= -1
_C230: Color_3_5 + Text_0_5 - 2 _hiddenCongruency1_9_5 >= 0
_C231: - Color_3_5 - Text_1_5 + _hiddenCongruency1_10_5 >= -1
_C232: Color_3_5 + Text_1_5 - 2 _hiddenCongruency1_10_5 >= 0
_C233: - Color_3_5 - Text_2_5 + _hiddenCongruency1_11_5 >= -1
_C234: Color_3_5 + Text_2_5 - 2 _hiddenCongruency1_11_5 >= 0
_C235: 12 Congruency_1_5 - _hiddenCongruency1_0_5 - _hiddenCongruency1_10_5
 - _hiddenCongruency1_11_5 - _hiddenCongruency1_1_5 - _hiddenCongruency1_2_5
 - _hiddenCongruency1_3_5 - _hiddenCongruency1_4_5 - _hiddenCongruency1_5_5
 - _hiddenCongruency1_6_5 - _hiddenCongruency1_7_5 - _hiddenCongruency1_8_5
 - _hiddenCongruency1_9_5 >= 0
_C236: - Congruency_1_5 + _hiddenCongruency1_0_5 + _hiddenCongruency1_10_5
 + _hiddenCongruency1_11_5 + _hiddenCongruency1_1_5 + _hiddenCongruency1_2_5
 + _hiddenCongruency1_3_5 + _hiddenCongruency1_4_5 + _hiddenCongruency1_5_5
 + _hiddenCongruency1_6_5 + _hiddenCongruency1_7_5 + _hiddenCongruency1_8_5
 + _hiddenCongruency1_9_5 >= 0
_C237: - Color_0_6 - Text_1_6 + _hiddenCongruency1_0_6 >= -1
_C238: Color_0_6 + Text_1_6 - 2 _hiddenCongruency1_0_6 >= 0
_C239: - Color_0_6 - Text_2_6 + _hiddenCongruency1_1_6 >= -1
_C24: Color_1_2 + Text_1_2 - 2 _hiddenCongruency0_1_2 >= 0
_C240: Color_0_6 + Text_2_6 - 2 _hiddenCongruency1_1_6 >= 0
_C241: - Color_0_6 - Text_3_6 + _hiddenCongruency1_2_6 >= -1
_C242: Color_0_6 + Text_3_6 - 2 _hiddenCongruency1_2_6 >= 0
_C243: - Color_1_6 - Text_0_6 + _hiddenCongruency1_3_6 >= -1
_C244: Color_1_6 + Text_0_6 - 2 _hiddenCongruency1_3_6 >= 0
_C245: - Color_1_6 - Text_2_6 + _hiddenCongruency1_4_6 >= -1
_C246: Color_1_6 + Text_2_6 - 2 _hiddenCongruency1_4_6 >= 0
_C247: - Color_1_6 - Text_3_6 + _hiddenCongruency1_5_6 >= -1
_C248: Color_1_6 + Text_3_6 - 2 _hiddenCongruency1_5_6 >= 0
_C249: - Color_2_6 - Text_0_6 + _hiddenCongruency1_6_6 >= -1
_C25: - Color_2_2 - Text_2_2 + _hiddenCongruency0_2_2 >= -1
_C250: Color_2_6 + Text_0_6 - 2 _hiddenCongruency1_6_6 >= 0
_C251: - Color_2_6 - Text_1_6 + _hiddenCongruency1_7_6 >= -1
_C252: Color_2_6 + Text_1_6 - 2 _hiddenCongruency1_7_6 >= 0
_C253: - Color_2_6 - Text_3_6 + _hiddenCongruency1_8_6 >= -1
_C254: Color_2_6 + Text_3_6 - 2 _hiddenCongruency1_8_6 >= 0
_C255: - Color_3_6 - Text_0_6 + _hiddenCongruency1_9_6 >= -1
_C256: Color_3_6 + Text_0_6 - 2 _hiddenCongruency1_9_6 >= 0
_C257: - Color_3_6 - Text_1_6 + _hiddenCongruency1_10_6 >= -1
_C258: Color_3_6 + Text_1_6 - 2 _hiddenCongruency1_10_6 >= 0
_C259: - Color_3_6 - Text_2_6 + _hiddenCongruency1_11_6 >= -1
_C26: Color_2_2 + Text_2_2 - 2 _hiddenCongruency0_2_2 >= 0
_C260: Color_3_6 + Text_2_6 - 2 _hiddenCongruency1_11_6 >= 0
_C261: 12 Congruency_1_6 - _hiddenCongruency1_0_6 - _hiddenCongruency1_10_6
 - _hiddenCongruency1_11_6 - _hiddenCongruency1_1_6 - _hiddenCongruency1_2_6
 - _hiddenCongruency1_3_6 - _hiddenCongruency1_4_6 - _hiddenCongruency1_5_6
 - _hiddenCongruency1_6_6 - _hiddenCongruency1_7_6 - _hiddenCongruency1_8_6
 - _hiddenCongruency1_9_6 >= 0
_C262: - Congruency_1_6 + _hiddenCongruency1_0_6 + _hiddenCongruency1_10_6
 + _hiddenCongruency1_11_6 + _hiddenCongruency1_1_6 + _hiddenCongruency1_2_6
 + _hiddenCongruency1_3_6 + _hiddenCongruency1_4_6 + _hiddenCongruency1_5_6
 + _hiddenCongruency1_6_6 + _hiddenCongruency1_7_6 + _hiddenCongruency1_8_6
 + _hiddenCongruency1_9_6 >= 0
_C263: - Color_0_7 - Text_1_7 + _hiddenCongruency1_0_7 >= -1
_C264: Color_0_7 + Text_1_7 - 2 _hiddenCongruency1_0_7 >= 0
_C265: - Color_0_7 - Text_2_7 + _hiddenCongruency1_1_7 >= -1
_C266: Color_0_7 + Text_2_7 - 2 _hiddenCongruency1_1_7 >= 0
_C267: - Color_0_7 - Text_3_7 + _hiddenCongruency1_2_7 >= -1
_C268: Color_0_7 + Text_3_7 - 2 _hiddenCongruency1_2_7 >= 0
_C269: - Color_1_7 - Text_0_7 + _hiddenCongruency1_3_7 >= -1
_C27: - Color_3_2 - Text_3_2 + _hiddenCongruency0_3_2 >= -1
_C270: Color_1_7 + Text_0_7 - 2 _hiddenCongruency1_3_7 >= 0
_C271: - Color_1_7 - Text_2_7 + _hiddenCongruency1_4_7 >= -1
_C272: Color_1_7 + Text_2_7 - 2 _hiddenCongruency1_4_7 >= 0
_C273: - Color_1_7 - Text_3_7 + _hiddenCongruency1_5_7 >= -1
_C274: Color_1_7 + Text_3_7 - 2 _hiddenCongruency1_5_7 >= 0
_C275: - Color_2_7 - Text_0_7 + _hiddenCongruency1_6_7 >= -1
_C276: Color_2_7 + Text_0_7 - 2 _hiddenCongruency1_6_7 >= 0
_C277: - Color_2_7 - Text_1_7 + _hiddenCongruency1_7_7 >= -1
_C278: Color_2_7 + Text_1_7 - 2 _hiddenCongruency1_7_7 >= 0
_C279: - Color_2_7 - Text_3_7 + _hiddenCongruency1_8_7 >= -1
_C28: Color_3_2 + Text_3_2 - 2 _hiddenCongruency0_3_2 >= 0
_C280: Color_2_7 + Text_3_7 - 2 _hiddenCongruency1_8_7 >= 0
_C281: - Color_3_7 - Text_0_7 + _hiddenCongruency1_9_7 >= -1
_C282: Color_3_7 + Text_0_7 - 2 _hiddenCongruency1_9_7 >= 0
_C283: - Color_3_7 - Text_1_7 + _hiddenCongruency1_10_7 >= -1
_C284: Color_3_7 + Text_1_7 - 2 _hiddenCongruency1_10_7 >= 0
_C285: - Color_3_7 - Text_2_7 + _hiddenCongruency1_11_7 >= -1
_C286: Color_3_7 + Text_2_7 - 2 _hiddenCongruency1_11_7 >= 0
_C287: 12 Congruency_1_7 - _hiddenCongruency1_0_7 - _hiddenCongruency1_10_7
 - _hiddenCongruency1_11_7 - _hiddenCongruency1_1_7 - _hiddenCongruency1_2_7
 - _hiddenCongruency1_3_7 - _hiddenCongruency1_4_7 - _hiddenCongruency1_5_7
 - _hiddenCongruency1_6_7 - _hiddenCongruency1_7_7 - _hiddenCongruency1_8_7
 - _hiddenCongruency1_9_7 >= 0
_C288: - Congruency_1_7 + _hiddenCongruency1_0_7 + _hiddenCongruency1_10_7
 + _hiddenCongruency1_11_7 + _hiddenCongruency1_1_7 + _hiddenCongruency1_2_7
 + _hiddenCongruency1_3_7 + _hiddenCongruency1_4_7 + _hiddenCongruency1_5_7
 + _hiddenCongruency1_6_7 + _hiddenCongruency1_7_7 + _hiddenCongruency1_8_7
 + _hiddenCongruency1_9_7 >= 0
_C289: Congruency_0_0 + Congruency_1_0 = 1
_C29: 4 Congruency_0_2 - _hiddenCongruency0_0_2 - _hiddenCongruency0_1_2
 - _hiddenCongruency0_2_2 - _hiddenCongruency0_3_2 >= 0
_C290: Congruency_0_1 + Congruency_1_1 = 1
_C291: Congruency_0_2 + Congruency_1_2 = 1
_C292: Congruency_0_3 + Congruency_1_3 = 1
_C293: Congruency_0_4 + Congruency_1_4 = 1
_C294: Congruency_0_5 + Congruency_1_5 = 1
_C295: Congruency_0_6 + Congruency_1_6 = 1
_C296: Congruency_0_7 + Congruency_1_7 = 1
_C297: Color_0_0 + Color_1_0 + Color_2_0 + Color_3_0 = 1
_C298: Color_0_1 + Color_1_1 + Color_2_1 + Color_3_1 = 1
_C299: Color_0_2 + Color_1_2 + Color_2_2 + Color_3_2 = 1
_C3: - Color_1_0 - Text_1_0 + _hiddenCongruency0_1_0 >= -1
_C30: - Congruency_0_2 + _hiddenCongruency0_0_2 + _hiddenCongruency0_1_2
 + _hiddenCongruency0_2_2 + _hiddenCongruency0_3_2 >= 0
_C300: Color_0_3 + Color_1_3 + Color_2_3 + Color_3_3 = 1
_C301: Color_0_4 + Color_1_4 + Color_2_4 + Color_3_4 = 1
_C302: Color_0_5 + Color_1_5 + Color_2_5 + Color_3_5 = 1
_C303: Color_0_6 + Color_1_6 + Color_2_6 + Color_3_6 = 1
_C304: Color_0_7 + Color_1_7 + Color_2_7 + Color_3_7 = 1
_C305: Text_0_0 + Text_1_0 + Text_2_0 + Text_3_0 = 1
_C306: Text_0_1 + Text_1_1 + Text_2_1 + Text_3_1 = 1
_C307: Text_0_2 + Text_1_2 + Text_2_2 + Text_3_2 = 1
_C308: Text_0_3 + Text_1_3 + Text_2_3 + Text_3_3 = 1
_C309: Text_0_4 + Text_1_4 + Text_2_4 + Text_3_4 = 1
_C31: - Color_0_3 - Text_0_3 + _hiddenCongruency0_0_3 >= -1
_C310: Text_0_5 + Text_1_5 + Text_2_5 + Text_3_5 = 1
_C311: Text_0_6 + Text_1_6 + Text_2_6 + Text_3_6 = 1
_C312: Text_0_7 + Text_1_7 + Text_2_7 + Text_3_7 = 1
_C313: - Color_0_0 - Congruency_0_0 + 2 Crossing_0_0 <= 0
_C314: - Color_0_0 - Congruency_0_0 + Crossing_0_0 >= -1
_C315: - Color_0_0 - Congruency_1_0 + 2 Crossing_0_1 <= 0
_C316: - Color_0_0 - Congruency_1_0 + Crossing_0_1 >= -1
_C317: - Color_1_0 - Congruency_0_0 + 2 Crossing_0_2 <= 0
_C318: - Color_1_0 - Congruency_0_0 + Crossing_0_2 >= -1
_C319: - Color_1_0 - Congruency_1_0 + 2 Crossing_0_3 <= 0
_C32: Color_0_3 + Text_0_3 - 2 _hiddenCongruency0_0_3 >= 0
_C320: - Color_1_0 - Congruency_1_0 + Crossing_0_3 >= -1
_C321: - Color_2_0 - Congruency_0_0 + 2 Crossing_0_4 <= 0
_C322: - Color_2_0 - Congruency_0_0 + Crossing_0_4 >= -1
_C323: - Color_2_0 - Congruency_1_0 + 2 Crossing_0_5 <= 0
_C324: - Color_2_0 - Congruency_1_0 + Crossing_0_5 >= -1
_C325: - Color_3_0 - Congruency_0_0 + 2 Crossing_0_6 <= 0
_C326: - Color_3_0 - Congruency_0_0 + Crossing_0_6 >= -1
_C327: - Color_3_0 - Congruency_1_0 + 2 Crossing_0_7 <= 0
_C328: - Color_3_0 - Congruency_1_0 + Crossing_0_7 >= -1
_C329: Crossing_0_0 + Crossing_1_0 + Crossing_2_0 + Crossing_3_0
 + Crossing_4_0 + Crossing_5_0 + Crossing_6_0 + Crossing_7_0 = 1
_C33: - Color_1_3 - Text_1_3 + _hiddenCongruency0_1_3 >= -1
_C330: - Color_0_1 - Congruency_0_1 + 2 Crossing_1_0 <= 0
_C331: - Color_0_1 - Congruency_0_1 + Crossing_1_0 >= -1
_C332: - Color_0_1 - Congruency_1_1 + 2 Crossing_1_1 <= 0
_C333: - Color_0_1 - Congruency_1_1 + Crossing_1_1 >= -1
_C334: - Color_1_1 - Congruency_0_1 + 2 Crossing_1_2 <= 0
_C335: - Color_1_1 - Congruency_0_1 + Crossing_1_2 >= -1
_C336: - Color_1_1 - Congruency_1_1 + 2 Crossing_1_3 <= 0
_C337: - Color_1_1 - Congruency_1_1 + Crossing_1_3 >= -1
_C338: - Color_2_1 - Congruency_0_1 + 2 Crossing_1_4 <= 0
_C339: - Color_2_1 - Congruency_0_1 + Crossing_1_4 >= -1
_C34: Color_1_3 + Text_1_3 - 2 _hiddenCongruency0_1_3 >= 0
_C340: - Color_2_1 - Congruency_1_1 + 2 Crossing_1_5 <= 0
_C341: - Color_2_1 - Congruency_1_1 + Crossing_1_5 >= -1
_C342: - Color_3_1 - Congruency_0_1 + 2 Crossing_1_6 <= 0
_C343: - Color_3_1 - Congruency_0_1 + Crossing_1_6 >= -1
_C344: - Color_3_1 - Congruency_1_1 + 2 Crossing_1_7 <= 0
_C345: - Color_3_1 - Congruency_1_1 + Crossing_1_7 >= -1
_C346: Crossing_0_1 + Crossing_1_1 + Crossing_2_1 + Crossing_3_1
 + Crossing_4_1 + Crossing_5_1 + Crossing_6_1 + Crossing_7_1 = 1
_C347: - Color_0_2 - Congruency_0_2 + 2 Crossing_2_0 <= 0
_C348: - Color_0_2 - Congruency_0_2 + Crossing_2_0 >= -1
_C349: - Color_0_2 - Congruency_1_2 + 2 Crossing_2_1 <= 0
_C35: - Color_2_3 - Text_2_3 + _hiddenCongruency0_2_3 >= -1
_C350: - Color_0_2 - Congruency_1_2 + Crossing_2_1 >= -1
_C351: - Color_1_2 - Congruency_0_2 + 2 Crossing_2_2 <= 0
_C352: - Color_1_2 - Congruency_0_2 + Crossing_2_2 >= -1
_C353: - Color_1_2 - Congruency_1_2 + 2 Crossing_2_3 <= 0
_C354: - Color_1_2 - Congruency_1_2 + Crossing_2_3 >= -1
_C355: - Color_2_2 - Congruency_0_2 + 2 Crossing_2_4 <= 0
_C356: - Color_2_2 - Congruency_0_2 + Crossing_2_4 >= -1
_C357: - Color_2_2 - Congruency_1_2 + 2 Crossing_2_5 <= 0
_C358: - Color_2_2 - Congruency_1_2 + Crossing_2_5 >= -1
_C359: - Color_3_2 - Congruency_0_2 + 2 Crossing_2_6 <= 0
_C36: Color_2_3 + Text_2_3 - 2 _hiddenCongruency0_2_3 >= 0
_C360: - Color_3_2 - Congruency_0_2 + Crossing_2_6 >= -1
_C361: - Color_3_2 - Congruency_1_2 + 2 Crossing_2_7 <= 0
_C362: - Color_3_2 - Congruency_1_2 + Crossing_2_7 >= -1
_C363: Crossing_0_2 + Crossing_1_2 + Crossing_2_2 + Crossing_3_2
 + Crossing_4_2 + Crossing_5_2 + Crossing_6_2 + Crossing_7_2 = 1
_C364: - Color_0_3 - Congruency_0_3 + 2 Crossing_3_0 <= 0
_C365: - Color_0_3 - Congruency_0_3 + Crossing_3_0 >= -1
_C366: - Color_0_3 - Congruency_1_3 + 2 Crossing_3_1 <= 0
_C367: - Color_0_3 - Congruency_1_3 + Crossing_3_1 >= -1
_C368: - Color_1_3 - Congruency_0_3 + 2 Crossing_3_2 <= 0
_C369: - Color_1_3 - Congruency_0_3 + Crossing_3_2 >= -1
_C37: - Color_3_3 - Text_3_3 + _hiddenCongruency0_3_3 >= -1
_C370: - Color_1_3 - Congruency_1_3 + 2 Crossing_3_3 <= 0
_C371: - Color_1_3 - Congruency_1_3 + Crossing_3_3 >= -1
_C372: - Color_2_3 - Congruency_0_3 + 2 Crossing_3_4 <= 0
_C373: - Color_2_3 - Congruency_0_3 + Crossing_3_4 >= -1
_C374: - Color_2_3 - Congruency_1_3 + 2 Crossing_3_5 <= 0
_C375: - Color_2_3 - Congruency_1_3 + Crossing_3_5 >= -1
_C376: - Color_3_3 - Congruency_0_3 + 2 Crossing_3_6 <= 0
_C377: - Color_3_3 - Congruency_0_3 + Crossing_3_6 >= -1
_C378: - Color_3_3 - Congruency_1_3 + 2 Crossing_3_7 <= 0
_C379: - Color_3_3 - Congruency_1_3 + Crossing_3_7 >= -1
_C38: Color_3_3 + Text_3_3 - 2 _hiddenCongruency0_3_3 >= 0
_C380: Crossing_0_3 + Crossing_1_3 + Crossing_2_3 + Crossing_3_3
 + Crossing_4_3 + Crossing_5_3 + Crossing_6_3 + Crossing_7_3 = 1
_C381: - Color_0_4 - Congruency_0_4 + 2 Crossing_4_0 <= 0
_C382: - Color_0_4 - Congruency_0_4 + Crossing_4_0 >= -1
_C383: - Color_0_4 - Congruency_1_4 + 2 Crossing_4_1 <= 0
_C384: - Color_0_4 - Congruency_1_4 + Crossing_4_1 >= -1
_C385: - Color_1_4 - Congruency_0_4 + 2 Crossing_4_2 <= 0
_C386: - Color_1_4 - Congruency_0_4 + Crossing_4_2 >= -1
_C387: - Color_1_4 - Congruency_1_4 + 2 Crossing_4_3 <= 0
_C388: - Color_1_4 - Congruency_1_4 + Crossing_4_3 >= -1
_C389: - Color_2_4 - Congruency_0_4 + 2 Crossing_4_4 <= 0
_C39: 4 Congruency_0_3 - _hiddenCongruency0_0_3 - _hiddenCongruency0_1_3
 - _hiddenCongruency0_2_3 - _hiddenCongruency0_3_3 >= 0
_C390: - Color_2_4 - Congruency_0_4 + Crossing_4_4 >= -1
_C391: - Color_2_4 - Congruency_1_4 + 2 Crossing_4_5 <= 0
_C392: - Color_2_4 - Congruency_1_4 + Crossing_4_5 >= -1
_C393: - Color_3_4 - Congruency_0_4 + 2 Crossing_4_6 <= 0
_C394: - Color_3_4 - Congruency_0_4 + Crossing_4_6 >= -1
_C395: - Color_3_4 - Congruency_1_4 + 2 Crossing_4_7 <= 0
_C396: - Color_3_4 - Congruency_1_4 + Crossing_4_7 >= -1
_C397: Crossing_0_4 + Crossing_1_4 + Crossing_2_4 + Crossing_3_4
 + Crossing_4_4 + Crossing_5_4 + Crossing_6_4 + Crossing_7_4 = 1
_C398: - Color_0_5 - Congruency_0_5 + 2 Crossing_5_0 <= 0
_C399: - Color_0_5 - Congruency_0_5 + Crossing_5_0 >= -1
_C4: Color_1_0 + Text_1_0 - 2 _hiddenCongruency0_1_0 >= 0
_C40: - Congruency_0_3 + _hiddenCongruency0_0_3 + _hiddenCongruency0_1_3
 + _hiddenCongruency0_2_3 + _hiddenCongruency0_3_3 >= 0
_C400: - Color_0_5 - Congruency_1_5 + 2 Crossing_5_1 <= 0
_C401: - Color_0_5 - Congruency_1_5 + Crossing_5_1 >= -1
_C402: - Color_1_5 - Congruency_0_5 + 2 Crossing_5_2 <= 0
_C403: - Color_1_5 - Congruency_0_5 + Crossing_5_2 >= -1
_C404: - Color_1_5 - Congruency_1_5 + 2 Crossing_5_3 <= 0
_C405: - Color_1_5 - Congruency_1_5 + Crossing_5_3 >= -1
_C406: - Color_2_5 - Congruency_0_5 + 2 Crossing_5_4 <= 0
_C407: - Color_2_5 - Congruency_0_5 + Crossing_5_4 >= -1
_C408: - Color_2_5 - Congruency_1_5 + 2 Crossing_5_5 <= 0
_C409: - Color_2_5 - Congruency_1_5 + Crossing_5_5 >= -1
_C41: - Color_0_4 - Text_0_4 + _hiddenCongruency0_0_4 >= -1
_C410: - Color_3_5 - Congruency_0_5 + 2 Crossing_5_6 <= 0
_C411: - Color_3_5 - Congruency_0_5 + Crossing_5_6 >= -1
_C412: - Color_3_5 - Congruency_1_5 + 2 Crossing_5_7 <= 0
_C413: - Color_3_5 - Congruency_1_5 + Crossing_5_7 >= -1
_C414: Crossing_0_5 + Crossing_1_5 + Crossing_2_5 + Crossing_3_5
 + Crossing_4_5 + Crossing_5_5 + Crossing_6_5 + Crossing_7_5 = 1
_C415: - Color_0_6 - Congruency_0_6 + 2 Crossing_6_0 <= 0
_C416: - Color_0_6 - Congruency_0_6 + Crossing_6_0 >= -1
_C417: - Color_0_6 - Congruency_1_6 + 2 Crossing_6_1 <= 0
_C418: - Color_0_6 - Congruency_1_6 + Crossing_6_1 >= -1
_C419: - Color_1_6 - Congruency_0_6 + 2 Crossing_6_2 <= 0
_C42: Color_0_4 + Text_0_4 - 2 _hiddenCongruency0_0_4 >= 0
_C420: - Color_1_6 - Congruency_0_6 + Crossing_6_2 >= -1
_C421: - Color_1_6 - Congruency_1_6 + 2 Crossing_6_3 <= 0
_C422: - Color_1_6 - Congruency_1_6 + Crossing_6_3 >= -1
_C423: - Color_2_6 - Congruency_0_6 + 2 Crossing_6_4 <= 0
_C424: - Color_2_6 - Congruency_0_6 + Crossing_6_4 >= -1
_C425: - Color_2_6 - Congruency_1_6 + 2 Crossing_6_5 <= 0
_C426: - Color_2_6 - Congruency_1_6 + Crossing_6_5 >= -1
_C427: - Color_3_6 - Congruency_0_6 + 2 Crossing_6_6 <= 0
_C428: - Color_3_6 - Congruency_0_6 + Crossing_6_6 >= -1
_C429: - Color_3_6 - Congruency_1_6 + 2 Crossing_6_7 <= 0
_C43: - Color_1_4 - Text_1_4 + _hiddenCongruency0_1_4 >= -1
_C430: - Color_3_6 - Congruency_1_6 + Crossing_6_7 >= -1
_C431: Crossing_0_6 + Crossing_1_6 + Crossing_2_6 + Crossing_3_6
 + Crossing_4_6 + Crossing_5_6 + Crossing_6_6 + Crossing_7_6 = 1
_C432: - Color_0_7 - Congruency_0_7 + 2 Crossing_7_0 <= 0
_C433: - Color_0_7 - Congruency_0_7 + Crossing_7_0 >= -1
_C434: - Color_0_7 - Congruency_1_7 + 2 Crossing_7_1 <= 0
_C435: - Color_0_7 - Congruency_1_7 + Crossing_7_1 >= -1
_C436: - Color_1_7 - Congruency_0_7 + 2 Crossing_7_2 <= 0
_C437: - Color_1_7 - Congruency_0_7 + Crossing_7_2 >= -1
_C438: - Color_1_7 - Congruency_1_7 + 2 Crossing_7_3 <= 0
_C439: - Color_1_7 - Congruency_1_7 + Crossing_7_3 >= -1
_C44: Color_1_4 + Text_1_4 - 2 _hiddenCongruency0_1_4 >= 0
_C440: - Color_2_7 - Congruency_0_7 + 2 Crossing_7_4 <= 0
_C441: - Color_2_7 - Congruency_0_7 + Crossing_7_4 >= -1
_C442: - Color_2_7 - Congruency_1_7 + 2 Crossing_7_5 <= 0
_C443: - Color_2_7 - Congruency_1_7 + Crossing_7_5 >= -1
_C444: - Color_3_7 - Congruency_0_7 + 2 Crossing_7_6 <= 0
_C445: - Color_3_7 - Congruency_0_7 + Crossing_7_6 >= -1
_C446: - Color_3_7 - Congruency_1_7 + 2 Crossing_7_7 <= 0
_C447: - Color_3_7 - Congruency_1_7 + Crossing_7_7 >= -1
_C448: Crossing_0_7 + Crossing_1_7 + Crossing_2_7 + Crossing_3_7
 + Crossing_4_7 + Crossing_5_7 + Crossing_6_7 + Crossing_7_7 = 1
_C45: - Color_2_4 - Text_2_4 + _hiddenCongruency0_2_4 >= -1
_C46: Color_2_4 + Text_2_4 - 2 _hiddenCongruency0_2_4 >= 0
_C47: - Color_3_4 - Text_3_4 + _hiddenCongruency0_3_4 >= -1
_C48: Color_3_4 + Text_3_4 - 2 _hiddenCongruency0_3_4 >= 0
_C49: 4 Congruency_0_4 - _hiddenCongruency0_0_4 - _hiddenCongruency0_1_4
 - _hiddenCongruency0_2_4 - _hiddenCongruency0_3_4 >= 0
_C5: - Color_2_0 - Text_2_0 + _hiddenCongruency0_2_0 >= -1
_C50: - Congruency_0_4 + _hiddenCongruency0_0_4 + _hiddenCongruency0_1_4
 + _hiddenCongruency0_2_4 + _hiddenCongruency0_3_4 >= 0
_C51: - Color_0_5 - Text_0_5 + _hiddenCongruency0_0_5 >= -1
_C52: Color_0_5 + Text_0_5 - 2 _hiddenCongruency0_0_5 >= 0
_C53: - Color_1_5 - Text_1_5 + _hiddenCongruency0_1_5 >= -1
_C54: Color_1_5 + Text_1_5 - 2 _hiddenCongruency0_1_5 >= 0
_C55: - Color_2_5 - Text_2_5 + _hiddenCongruency0_2_5 >= -1
_C56: Color_2_5 + Text_2_5 - 2 _hiddenCongruency0_2_5 >= 0
_C57: - Color_3_5 - Text_3_5 + _hiddenCongruency0_3_5 >= -1
_C58: Color_3_5 + Text_3_5 - 2 _hiddenCongruency0_3_5 >= 0
_C59: 4 Congruency_0_5 - _hiddenCongruency0_0_5 - _hiddenCongruency0_1_5
 - _hiddenCongruency0_2_5 - _hiddenCongruency0_3_5 >= 0
_C6: Color_2_0 + Text_2_0 - 2 _hiddenCongruency0_2_0 >= 0
_C60: - Congruency_0_5 + _hiddenCongruency0_0_5 + _hiddenCongruency0_1_5
 + _hiddenCongruency0_2_5 + _hiddenCongruency0_3_5 >= 0
_C61: - Color_0_6 - Text_0_6 + _hiddenCongruency0_0_6 >= -1
_C62: Color_0_6 + Text_0_6 - 2 _hiddenCongruency0_0_6 >= 0
_C63: - Color_1_6 - Text_1_6 + _hiddenCongruency0_1_6 >= -1
_C64: Color_1_6 + Text_1_6 - 2 _hiddenCongruency0_1_6 >= 0
_C65: - Color_2_6 - Text_2_6 + _hiddenCongruency0_2_6 >= -1
_C66: Color_2_6 + Text_2_6 - 2 _hiddenCongruency0_2_6 >= 0
_C67: - Color_3_6 - Text_3_6 + _hiddenCongruency0_3_6 >= -1
_C68: Color_3_6 + Text_3_6 - 2 _hiddenCongruency0_3_6 >= 0
_C69: 4 Congruency_0_6 - _hiddenCongruency0_0_6 - _hiddenCongruency0_1_6
 - _hiddenCongruency0_2_6 - _hiddenCongruency0_3_6 >= 0
_C7: - Color_3_0 - Text_3_0 + _hiddenCongruency0_3_0 >= -1
_C70: - Congruency_0_6 + _hiddenCongruency0_0_6 + _hiddenCongruency0_1_6
 + _hiddenCongruency0_2_6 + _hiddenCongruency0_3_6 >= 0
_C71: - Color_0_7 - Text_0_7 + _hiddenCongruency0_0_7 >= -1
_C72: Color_0_7 + Text_0_7 - 2 _hiddenCongruency0_0_7 >= 0
_C73: - Color_1_7 - Text_1_7 + _hiddenCongruency0_1_7 >= -1
_C74: Color_1_7 + Text_1_7 - 2 _hiddenCongruency0_1_7 >= 0
_C75: - Color_2_7 - Text_2_7 + _hiddenCongruency0_2_7 >= -1
_C76: Color_2_7 + Text_2_7 - 2 _hiddenCongruency0_2_7 >= 0
_C77: - Color_3_7 - Text_3_7 + _hiddenCongruency0_3_7 >= -1
_C78: Color_3_7 + Text_3_7 - 2 _hiddenCongruency0_3_7 >= 0
_C79: 4 Congruency_0_7 - _hiddenCongruency0_0_7 - _hiddenCongruency0_1_7
 - _hiddenCongruency0_2_7 - _hiddenCongruency0_3_7 >= 0
_C8: Color_3_0 + Text_3_0 - 2 _hiddenCongruency0_3_0 >= 0
_C80: - Congruency_0_7 + _hiddenCongruency0_0_7 + _hiddenCongruency0_1_7
 + _hiddenCongruency0_2_7 + _hiddenCongruency0_3_7 >= 0
_C81: - Color_0_0 - Text_1_0 + _hiddenCongruency1_0_0 >= -1
_C82: Color_0_0 + Text_1_0 - 2 _hiddenCongruency1_0_0 >= 0
_C83: - Color_0_0 - Text_2_0 + _hiddenCongruency1_1_0 >= -1
_C84: Color_0_0 + Text_2_0 - 2 _hiddenCongruency1_1_0 >= 0
_C85: - Color_0_0 - Text_3_0 + _hiddenCongruency1_2_0 >= -1
_C86: Color_0_0 + Text_3_0 - 2 _hiddenCongruency1_2_0 >= 0
_C87: - Color_1_0 - Text_0_0 + _hiddenCongruency1_3_0 >= -1
_C88: Color_1_0 + Text_0_0 - 2 _hiddenCongruency1_3_0 >= 0
_C89: - Color_1_0 - Text_2_0 + _hiddenCongruency1_4_0 >= -1
_C9: 4 Congruency_0_0 - _hiddenCongruency0_0_0 - _hiddenCongruency0_1_0
 - _hiddenCongruency0_2_0 - _hiddenCongruency0_3_0 >= 0
_C90: Color_1_0 + Text_2_0 - 2 _hiddenCongruency1_4_0 >= 0
_C91: - Color_1_0 - Text_3_0 + _hiddenCongruency1_5_0 >= -1
_C92: Color_1_0 + Text_3_0 - 2 _hiddenCongruency1_5_0 >= 0
_C93: - Color_2_0 - Text_0_0 + _hiddenCongruency1_6_0 >= -1
_C94: Color_2_0 + Text_0_0 - 2 _hiddenCongruency1_6_0 >= 0
_C95: - Color_2_0 - Text_1_0 + _hiddenCongruency1_7_0 >= -1
_C96: Color_2_0 + Text_1_0 - 2 _hiddenCongruency1_7_0 >= 0
_C97: - Color_2_0 - Text_3_0 + _hiddenCongruency1_8_0 >= -1
_C98: Color_2_0 + Text_3_0 - 2 _hiddenCongruency1_8_0 >= 0
_C99: - Color_3_0 - Text_0_0 + _hiddenCongruency1_9_0 >= -1
Bounds
 __dummy = 0
Binaries
Color_0_0
Color_0_1
Color_0_2
Color_0_3
Color_0_4
Color_0_5
Color_0_6
Color_0_7
Color_1_0
Color_1_1
Color_1_2
Color_1_3
Color_1_4
Color_1_5
Color_1_6
Color_1_7
Color_2_0
Color_2_1
Color_2_2
Color_2_3
Color_2_4
Color_2_5
Color_2_6
Color_2_7
Color_3_0
Color_3_1
Color_3_2
Color_3_3
Color_3_4
Color_3_5
Color_3_6
Color_3_7
Congruency_0_0
Congruency_0_1
Congruency_0_2
Congruency_0_3
Congruency_0_4
Congruency_0_5
Congruency_0_6
Congruency_0_7
Congruency_1_0
Congruency_1_1
Congruency_1_2
Congruency_1_3
Congruency_1_4
Congruency_1_5
Congruency_1_6
Congruency_1_7
Crossing_0_0
Crossing_0_1
Crossing_0_2
Crossing_0_3
Crossing_0_4
Crossing_0_5
Crossing_0_6
Crossing_0_7
Crossing_1_0
Crossing_1_1
Crossing_1_2
Crossing_1_3
Crossing_1_4
Crossing_1_5
Crossing_1_6
Crossing_1_7
Crossing_2_0
Crossing_2_1
Crossing_2_2
Crossing_2_3
Crossing_2_4
Crossing_2_5
Crossing_2_6
Crossing_2_7
Crossing_3_0
Crossing_3_1
Crossing_3_2
Crossing_3_3
Crossing_3_4
Crossing_3_5
Crossing_3_6
Crossing_3_7
Crossing_4_0
Crossing_4_1
Crossing_4_2
Crossing_4_3
Crossing_4_4
Crossing_4_5
Crossing_4_6
Crossing_4_7
Crossing_5_0
Crossing_5_1
Crossing_5_2
Crossing_5_3
Crossing_5_4
Crossing_5_5
Crossing_5_6
Crossing_5_7
Crossing_6_0
Crossing_6_1
Crossing_6_2
Crossing_6_3
Crossing_6_4
Crossing_6_5
Crossing_6_6
Crossing_6_7
Crossing_7_0
Crossing_7_1
Crossing_7_2
Crossing_7_3
Crossing_7_4
Crossing_7_5
Crossing_7_6
Crossing_7_7
Text_0_0
Text_0_1
Text_0_2
Text_0_3
Text_0_4
Text_0_5
Text_0_6
Text_0_7
Text_1_0
Text_1_1
Text_1_2
Text_1_3
Text_1_4
Text_1_5
Text_1_6
Text_1_7
Text_2_0
Text_2_1
Text_2_2
Text_2_3
Text_2_4
Text_2_5
Text_2_6
Text_2_7
Text_3_0
Text_3_1
Text_3_2
Text_3_3
Text_3_4
Text_3_5
Text_3_6
Text_3_7
_hiddenCongruency0_0_0
_hiddenCongruency0_0_1
_hiddenCongruency0_0_2
_hiddenCongruency0_0_3
_hiddenCongruency0_0_4
_hiddenCongruency0_0_5
_hiddenCongruency0_0_6
_hiddenCongruency0_0_7
_hiddenCongruency0_1_0
_hiddenCongruency0_1_1
_hiddenCongruency0_1_2
_hiddenCongruency0_1_3
_hiddenCongruency0_1_4
_hiddenCongruency0_1_5
_hiddenCongruency0_1_6
_hiddenCongruency0_1_7
_hiddenCongruency0_2_0
_hiddenCongruency0_2_1
_hiddenCongruency0_2_2
_hiddenCongruency0_2_3
_hiddenCongruency0_2_4
_hiddenCongruency0_2_5
_hiddenCongruency0_2_6
_hiddenCongruency0_2_7
_hiddenCongruency0_3_0
_hiddenCongruency0_3_1
_hiddenCongruency0_3_2
_hiddenCongruency0_3_3
_hiddenCongruency0_3_4
_hiddenCongruency0_3_5
_hiddenCongruency0_3_6
_hiddenCongruency0_3_7
_hiddenCongruency1_0_0
_hiddenCongruency1_0_1
_hiddenCongruency1_0_2
_hiddenCongruency1_0_3
_hiddenCongruency1_0_4
_hiddenCongruency1_0_5
_hiddenCongruency1_0_6
_hiddenCongruency1_0_7
_hiddenCongruency1_10_0
_hiddenCongruency1_10_1
_hiddenCongruency1_10_2
_hiddenCongruency1_10_3
_hiddenCongruency1_10_4
_hiddenCongruency1_10_5
_hiddenCongruency1_10_6
_hiddenCongruency1_10_7
_hiddenCongruency1_11_0
_hiddenCongruency1_11_1
_hiddenCongruency1_11_2
_hiddenCongruency1_11_3
_hiddenCongruency1_11_4
_hiddenCongruency1_11_5
_hiddenCongruency1_11_6
_hiddenCongruency1_11_7
_hiddenCongruency1_1_0
_hiddenCongruency1_1_1
_hiddenCongruency1_1_2
_hiddenCongruency1_1_3
_hiddenCongruency1_1_4
_hiddenCongruency1_1_5
_hiddenCongruency1_1_6
_hiddenCongruency1_1_7
_hiddenCongruency1_2_0
_hiddenCongruency1_2_1
_hiddenCongruency1_2_2
_hiddenCongruency1_2_3
_hiddenCongruency1_2_4
_hiddenCongruency1_2_5
_hiddenCongruency1_2_6
_hiddenCongruency1_2_7
_hiddenCongruency1_3_0
_hiddenCongruency1_3_1
_hiddenCongruency1_3_2
_hiddenCongruency1_3_3
_hiddenCongruency1_3_4
_hiddenCongruency1_3_5
_hiddenCongruency1_3_6
_hiddenCongruency1_3_7
_hiddenCongruency1_4_0
_hiddenCongruency1_4_1
_hiddenCongruency1_4_2
_hiddenCongruency1_4_3
_hiddenCongruency1_4_4
_hiddenCongruency1_4_5
_hiddenCongruency1_4_6
_hiddenCongruency1_4_7
_hiddenCongruency1_5_0
_hiddenCongruency1_5_1
_hiddenCongruency1_5_2
_hiddenCongruency1_5_3
_hiddenCongruency1_5_4
_hiddenCongruency1_5_5
_hiddenCongruency1_5_6
_hiddenCongruency1_5_7
_hiddenCongruency1_6_0
_hiddenCongruency1_6_1
_hiddenCongruency1_6_2
_hiddenCongruency1_6_3
_hiddenCongruency1_6_4
_hiddenCongruency1_6_5
_hiddenCongruency1_6_6
_hiddenCongruency1_6_7
_hiddenCongruency1_7_0
_hiddenCongruency1_7_1
_hiddenCongruency1_7_2
_hiddenCongruency1_7_3
_hiddenCongruency1_7_4
_hiddenCongruency1_7_5
_hiddenCongruency1_7_6
_hiddenCongruency1_7_7
_hiddenCongruency1_8_0
_hiddenCongruency1_8_1
_hiddenCongruency1_8_2
_hiddenCongruency1_8_3
_hiddenCongruency1_8_4
_hiddenCongruency1_8_5
_hiddenCongruency1_8_6
_hiddenCongruency1_8_7
_hiddenCongruency1_9_0
_hiddenCongruency1_9_1
_hiddenCongruency1_9_2
_hiddenCongruency1_9_3
_hiddenCongruency1_9_4
_hiddenCongruency1_9_5
_hiddenCongruency1_9_6
_hiddenCongruency1_9_7
End
